data/instances/vrp_files/train_44.vrp
NAME : 44
COMMENT : Generated instance No. 44
TYPE : CVRP
DIMENSION : 21
EDGE_WEIGHT_TYPE : EUC_2D
CAPACITY : 30
NODE_COORD_SECTION
 1 449 585
 2 613 88
 3 487 77
 4 407 407
 5 66 348
 6 110 808
 7 947 72
 8 955 522
 9 299 76
 10 500 794
 11 707 50
 12 72 402
 13 295 232
 14 281 803
 15 929 405
 16 906 321
 17 476 226
 18 640 978
 19 603 357
 20 647 122
 21 888 503
DEMAND_SECTION
1 0
2 8
3 6
4 4
5 4
6 2
7 2
8 4
9 5
10 8
11 6
12 4
13 7
14 8
15 2
16 7
17 2
18 2
19 8
20 2
21 9
DEPOT_SECTION
 1
 -1
EOF